1 30 40 0
2 37 52 7
3 49 49 30
4 52 64 16
5 20 26 9
6 40 30 21
7 21 47 15
8 17 63 19
9 31 62 23
10 52 33 11
11 51 21 5
12 42 41 19
13 31 32 29
14 5 25 23
15 12 42 21
16 36 16 10
17 52 41 15
18 27 23 3
19 17 33 41
20 13 13 9
21 57 58 28
22 62 42 8
23 42 57 8
24 16 57 16
25 8 52 10
26 7 38 28
